* ENCODING=ISO-8859-1
NAME          CPLEX
ROWS
 N  obj1    
 G  c1      
 G  c2      
 G  c3      
 G  c4      
 G  c5      
 G  c6      
 G  c7      
 G  c8      
 G  c9      
 G  c10     
 G  c11     
 G  c12     
 G  c13     
 G  c14     
 G  c15     
 G  c16     
 G  c17     
 G  c18     
 G  c19     
 G  c20     
 G  c21     
 G  c22     
 G  c23     
 G  c24     
 G  c25     
 G  c26     
 G  c27     
 G  c28     
 G  c29     
 G  c30     
 G  c31     
 G  c32     
 G  c33     
 G  c34     
 G  c35     
 G  c36     
 G  c37     
 G  c38     
 G  c39     
 G  c40     
 G  c41     
 G  c42     
 G  c43     
 G  c44     
 G  c45     
 G  c46     
 G  c47     
 G  c48     
 G  c49     
 G  c50     
 G  c51     
 G  c52     
 G  c53     
 G  c54     
 G  c55     
 G  c56     
 G  c57     
 G  c58     
 G  c59     
 G  c60     
 G  c61     
 G  c62     
 G  c63     
 G  c64     
 G  c65     
 G  c66     
 G  c67     
 G  c68     
 G  c69     
 G  c70     
COLUMNS
    MARK0000  'MARKER'                 'INTORG'
    x1        obj1                            1
    x1        c5                            252
    x1        c8                            519
    x1        c9                            971
    x1        c15                           781
    x1        c23                           140
    x1        c35                           583
    x1        c42                           255
    x1        c46                           288
    x1        c48                           127
    x1        c60                           141
    x2        obj1                            1
    x2        c7                            989
    x2        c29                           531
    x2        c31                           632
    x2        c37                           790
    x2        c41                           663
    x2        c54                           255
    x2        c60                           206
    x2        c68                           913
    x3        obj1                            1
    x3        c2                            939
    x3        c30                           402
    x3        c33                           487
    x3        c38                           316
    x3        c43                           299
    x3        c69                           434
    x4        obj1                            1
    x4        c4                            971
    x4        c8                            444
    x4        c10                           337
    x4        c37                           339
    x4        c60                           321
    x5        obj1                            1
    x5        c33                           244
    x5        c36                           872
    x5        c38                           695
    x5        c44                           970
    x5        c68                           499
    x6        obj1                            1
    x6        c13                           881
    x6        c17                           517
    x6        c50                           568
    x6        c59                           812
    x6        c63                           175
    x7        obj1                            1
    x7        c24                           167
    x7        c50                           185
    x7        c61                           395
    x7        c62                           792
    x7        c67                           692
    x8        obj1                            1
    x8        c1                            893
    x8        c12                           730
    x8        c20                           587
    x8        c23                           145
    x8        c40                           629
    x8        c46                           215
    x8        c51                           691
    x8        c58                           534
    x8        c64                           786
    x9        obj1                            1
    x9        c13                           746
    x9        c14                           582
    x9        c16                           343
    x9        c18                           102
    x9        c25                           400
    x9        c32                           635
    x9        c56                           733
    x9        c62                           174
    x9        c65                           862
    x10       obj1                            1
    x10       c11                           856
    x10       c26                           842
    x10       c27                           951
    x10       c47                           290
    x10       c48                           399
    x10       c57                           539
    x10       c59                           302
    x10       c66                           481
    x11       obj1                            1
    x11       c27                           701
    x11       c34                           492
    x11       c39                           822
    x11       c52                           367
    x11       c64                           744
    x12       obj1                            1
    x12       c2                            354
    x12       c8                            959
    x12       c13                           182
    x12       c16                           614
    x12       c25                           994
    x12       c26                           103
    x12       c28                           708
    x12       c35                           948
    x12       c36                           414
    x12       c53                           319
    x12       c56                           866
    x12       c70                           359
    x13       obj1                            1
    x13       c23                           455
    x13       c26                           183
    x13       c30                           494
    x13       c33                           847
    x13       c49                           486
    x14       obj1                            1
    x14       c14                           912
    x14       c19                           322
    x14       c22                           797
    x14       c27                           357
    x14       c52                           980
    x14       c61                           589
    x14       c66                           573
    x14       c70                           711
    x15       obj1                            1
    x15       c34                           991
    x15       c38                           397
    x15       c45                           584
    x15       c50                           879
    x16       obj1                            1
    x16       c13                           814
    x16       c22                           600
    x16       c35                           918
    x16       c37                           366
    x16       c46                           817
    x16       c53                           592
    x16       c58                           878
    x16       c59                           178
    x17       obj1                            1
    x17       c9                            604
    x17       c13                           352
    x17       c46                           512
    x17       c48                           555
    x17       c57                           711
    x17       c58                           532
    x17       c69                           822
    x18       obj1                            1
    x18       c20                           155
    x18       c22                           304
    x18       c33                           798
    x18       c50                           892
    x18       c56                           587
    x18       c62                           949
    x18       c64                           910
    x19       obj1                            1
    x19       c15                           509
    x19       c19                           576
    x19       c21                           547
    x19       c23                           259
    x19       c48                           146
    x19       c54                           429
    x19       c69                           571
    x20       obj1                            1
    x20       c1                            666
    x20       c6                            411
    x20       c19                           298
    x20       c41                           911
    x20       c42                           850
    x20       c50                           732
    x20       c54                           211
    x20       c64                           840
    x20       c69                           390
    x21       obj1                            1
    x21       c5                            767
    x21       c6                            470
    x21       c11                           418
    x21       c17                           803
    x21       c30                           560
    x21       c32                           236
    x21       c33                           394
    x21       c43                           246
    x21       c48                           942
    x21       c51                           760
    x21       c64                           653
    x21       c65                           637
    x22       obj1                            1
    x22       c15                           889
    x22       c17                           453
    x22       c29                           940
    x22       c63                           601
    x23       obj1                            1
    x23       c2                            716
    x23       c11                           483
    x23       c17                           872
    x23       c27                           607
    x23       c35                           716
    x23       c43                           375
    x23       c45                           416
    x23       c60                           670
    x23       c68                           226
    x24       obj1                            1
    x24       c18                           992
    x24       c21                           684
    x24       c22                           510
    x24       c29                           142
    x24       c44                           502
    x24       c64                           225
    x24       c68                           690
    x24       c69                           603
    x25       obj1                            1
    x25       c29                           835
    x25       c33                           516
    x25       c61                           337
    x25       c63                          1000
    x25       c70                           372
    x26       obj1                            1
    x26       c7                            733
    x26       c11                           834
    x26       c12                           386
    x26       c23                           894
    x26       c24                           801
    x26       c35                           494
    x26       c52                           450
    x26       c54                           463
    x26       c68                           576
    x27       obj1                            1
    x27       c3                            102
    x27       c6                            678
    x27       c16                           553
    x27       c27                           869
    x27       c33                           870
    x27       c34                           548
    x27       c45                           894
    x27       c48                           558
    x27       c52                           116
    x27       c67                           521
    x28       obj1                            1
    x28       c2                            882
    x28       c8                            313
    x28       c30                           527
    x28       c35                           197
    x28       c47                           928
    x28       c49                           473
    x28       c65                           887
    x29       obj1                            1
    x29       c16                           425
    x29       c38                           165
    x29       c51                           713
    x29       c52                           323
    x29       c57                           770
    x30       obj1                            1
    x30       c4                            626
    x30       c12                           349
    x30       c20                           724
    x30       c50                           274
    x30       c54                           960
    x30       c59                           930
    x31       obj1                            1
    x31       c12                           650
    x31       c18                           375
    x31       c40                           931
    x31       c55                           825
    x31       c66                           502
    x32       obj1                            1
    x32       c2                            210
    x32       c16                           621
    x32       c27                           873
    x32       c44                           751
    x33       obj1                            1
    x33       c28                           378
    x33       c42                           635
    x33       c50                           533
    x33       c55                           977
    x33       c56                           770
    x33       c63                           782
    x33       c66                           292
    x33       c67                           287
    x34       obj1                            1
    x34       c2                            994
    x34       c3                            971
    x34       c30                           954
    x34       c39                           397
    x34       c44                           257
    x35       obj1                            1
    x35       c11                           469
    x35       c12                           970
    x35       c14                           398
    x35       c31                           587
    x35       c40                           191
    x35       c54                           180
    x35       c59                           342
    x35       c61                           662
    x35       c65                           674
    x36       obj1                            1
    x36       c25                           607
    x36       c29                           364
    x36       c32                           958
    x36       c44                           585
    x36       c52                           173
    x36       c59                           754
    x36       c66                           610
    x37       obj1                            1
    x37       c6                            446
    x37       c22                           897
    x37       c28                           954
    x37       c50                           670
    x37       c53                           902
    x37       c55                           599
    x37       c56                           238
    x37       c59                           540
    x38       obj1                            1
    x38       c1                            197
    x38       c10                           193
    x38       c30                           631
    x38       c34                           951
    x38       c70                           790
    x39       obj1                            1
    x39       c1                            314
    x39       c8                            823
    x39       c27                           570
    x39       c37                           696
    x39       c39                          1000
    x39       c41                           184
    x39       c45                           426
    x39       c60                           464
    x40       obj1                            1
    x40       c2                            127
    x40       c4                            490
    x40       c8                            672
    x40       c10                           100
    x40       c11                           531
    x40       c31                           810
    x40       c32                           165
    x40       c45                           411
    x40       c56                           649
    x40       c58                           780
    x40       c63                           428
    x41       obj1                            1
    x41       c3                            535
    x41       c13                           811
    x41       c19                           946
    x41       c24                           316
    x41       c43                           472
    x41       c55                           680
    x41       c57                           589
    x42       obj1                            1
    x42       c37                           857
    x43       obj1                            1
    x43       c3                            971
    x43       c6                            280
    x43       c13                           390
    x43       c14                           424
    x43       c20                           313
    x43       c32                           622
    x43       c52                           955
    x43       c67                           335
    x43       c70                           139
    x44       obj1                            1
    x44       c6                            161
    x44       c7                            960
    x44       c21                           895
    x44       c28                           736
    x44       c52                           755
    x45       obj1                            1
    x45       c14                           576
    x45       c17                           481
    x45       c41                           871
    x45       c53                           165
    x45       c64                           558
    x45       c66                           363
    x46       obj1                            1
    x46       c3                            319
    x46       c6                            588
    x46       c8                            145
    x46       c16                           805
    x46       c17                           911
    x46       c19                           902
    x46       c26                           758
    x46       c28                           404
    x46       c33                           881
    x46       c45                           764
    x46       c48                           251
    x46       c50                           229
    x47       obj1                            1
    x47       c1                            104
    x47       c19                           292
    x47       c24                           475
    x47       c35                           196
    x47       c51                           939
    x47       c65                           535
    x47       c68                           855
    x47       c69                           254
    x48       obj1                            1
    x48       c10                           315
    x48       c13                           166
    x48       c22                           663
    x48       c36                           980
    x48       c41                           744
    x48       c47                           867
    x48       c54                           776
    x48       c63                           348
    x48       c65                           950
    x49       obj1                            1
    x49       c15                           663
    x49       c19                           224
    x49       c31                           642
    x49       c49                           318
    x49       c61                           962
    x49       c63                           816
    x49       c69                           404
    x49       c70                           618
    x50       obj1                            1
    x50       c4                            448
    x50       c19                           772
    x50       c42                           138
    x50       c48                           587
    x50       c49                           945
    x50       c69                           644
    x51       obj1                            1
    x51       c13                           571
    x51       c14                           744
    x51       c31                           784
    x51       c37                           527
    x51       c54                           758
    x51       c68                           299
    x52       obj1                            1
    x52       c5                            130
    x52       c23                           720
    x52       c32                           454
    x52       c36                           931
    x52       c44                           499
    x53       obj1                            1
    x53       c39                           989
    x53       c57                           239
    x53       c59                           703
    x53       c61                           800
    x54       obj1                            1
    x54       c14                           655
    x54       c27                           604
    x54       c29                           925
    x54       c40                           113
    x55       obj1                            1
    x55       c1                            138
    x55       c5                            722
    x55       c9                            688
    x55       c16                           430
    x55       c21                           464
    x55       c40                           856
    x55       c41                           894
    x55       c46                           546
    x55       c47                           676
    x55       c70                           102
    x56       obj1                            1
    x56       c6                            165
    x56       c37                           399
    x56       c38                           552
    x56       c48                           667
    x56       c60                           826
    x56       c62                           475
    x56       c65                           628
    x56       c69                           687
    x57       obj1                            1
    x57       c9                            753
    x57       c18                           807
    x57       c27                           831
    x57       c58                           769
    x57       c61                           993
    x58       obj1                            1
    x58       c3                            609
    x58       c30                           859
    x58       c31                           174
    x58       c53                           905
    x59       obj1                            1
    x59       c11                           160
    x59       c20                           956
    x59       c44                           171
    x59       c45                           173
    x60       obj1                            1
    x60       c11                           455
    x60       c12                           211
    x60       c21                           933
    x60       c31                           930
    x60       c32                           866
    x60       c49                           580
    x60       c61                           839
    x60       c63                           799
    x61       obj1                            1
    x61       c7                            769
    x61       c14                           691
    x61       c22                           661
    x61       c58                           628
    x61       c63                           728
    x62       obj1                            1
    x62       c13                           342
    x62       c42                           183
    x62       c54                           796
    x62       c60                           106
    x62       c63                           535
    x63       obj1                            1
    x63       c3                            286
    x63       c9                            689
    x63       c11                           338
    x63       c26                           775
    x63       c33                           703
    x63       c44                           462
    x63       c50                           938
    x64       obj1                            1
    x64       c8                            526
    x64       c18                           663
    x64       c24                           200
    x64       c25                           424
    x64       c41                           997
    x64       c53                           837
    x64       c67                           361
    x64       c69                           820
    x65       obj1                            1
    x65       c1                            650
    x65       c36                           567
    x65       c41                           824
    x65       c42                           473
    x65       c49                           969
    x65       c52                           102
    x65       c55                           724
    x65       c58                           695
    x66       obj1                            1
    x66       c7                            973
    x66       c16                           423
    x66       c46                           212
    x66       c51                           782
    x66       c60                           634
    x67       obj1                            1
    x67       c1                            822
    x67       c16                           737
    x67       c35                           873
    x67       c41                           817
    x67       c52                           778
    x67       c61                           881
    x67       c68                           522
    x68       obj1                            1
    x68       c17                           804
    x68       c21                           360
    x68       c31                           867
    x68       c49                           244
    x68       c51                           181
    x68       c56                           754
    x68       c62                           453
    x69       obj1                            1
    x69       c8                            270
    x69       c11                           375
    x69       c15                           229
    x69       c27                           552
    x69       c35                           318
    x69       c59                           140
    x69       c65                           840
    x70       obj1                            1
    x70       c1                            854
    x70       c12                           558
    x70       c21                           910
    x70       c33                           256
    x70       c41                           579
    x70       c46                           622
    x70       c48                           734
    x70       c54                           178
    x70       c66                           299
    MARK0001  'MARKER'                 'INTEND'
RHS
    rhs       c1                           2319
    rhs       c2                           2111
    rhs       c3                           1897
    rhs       c4                           1268
    rhs       c5                            936
    rhs       c6                           1600
    rhs       c7                           2212
    rhs       c8                           2336
    rhs       c9                           1853
    rhs       c10                           473
    rhs       c11                          2460
    rhs       c12                          1927
    rhs       c13                          2628
    rhs       c14                          2491
    rhs       c15                          1536
    rhs       c16                          2476
    rhs       c17                          2421
    rhs       c18                          1470
    rhs       c19                          2166
    rhs       c20                          1368
    rhs       c21                          2397
    rhs       c22                          2216
    rhs       c23                          1307
    rhs       c24                           980
    rhs       c25                          1213
    rhs       c26                          1331
    rhs       c27                          3458
    rhs       c28                          1590
    rhs       c29                          1869
    rhs       c30                          2214
    rhs       c31                          2713
    rhs       c32                          1968
    rhs       c33                          2998
    rhs       c34                          1491
    rhs       c35                          2622
    rhs       c36                          1882
    rhs       c37                          1987
    rhs       c38                          1063
    rhs       c39                          1604
    rhs       c40                          1360
    rhs       c41                          3742
    rhs       c42                          1267
    rhs       c43                           696
    rhs       c44                          2099
    rhs       c45                          1834
    rhs       c46                          1606
    rhs       c47                          1381
    rhs       c48                          2483
    rhs       c49                          2008
    rhs       c50                          2950
    rhs       c51                          2033
    rhs       c52                          2500
    rhs       c53                          1860
    rhs       c54                          2503
    rhs       c55                          1903
    rhs       c56                          2299
    rhs       c57                          1424
    rhs       c58                          2408
    rhs       c59                          2351
    rhs       c60                          1684
    rhs       c61                          3229
    rhs       c62                          1422
    rhs       c63                          3106
    rhs       c64                          2358
    rhs       c65                          3007
    rhs       c66                          1560
    rhs       c67                          1098
    rhs       c68                          2290
    rhs       c69                          2815
    rhs       c70                          1546
BOUNDS
 LI bnd       x1        0
 LI bnd       x2        0
 LI bnd       x3        0
 LI bnd       x4        0
 LI bnd       x5        0
 LI bnd       x6        0
 LI bnd       x7        0
 LI bnd       x8        0
 LI bnd       x9        0
 LI bnd       x10       0
 LI bnd       x11       0
 LI bnd       x12       0
 LI bnd       x13       0
 LI bnd       x14       0
 LI bnd       x15       0
 LI bnd       x16       0
 LI bnd       x17       0
 LI bnd       x18       0
 LI bnd       x19       0
 LI bnd       x20       0
 LI bnd       x21       0
 LI bnd       x22       0
 LI bnd       x23       0
 LI bnd       x24       0
 LI bnd       x25       0
 LI bnd       x26       0
 LI bnd       x27       0
 LI bnd       x28       0
 LI bnd       x29       0
 LI bnd       x30       0
 LI bnd       x31       0
 LI bnd       x32       0
 LI bnd       x33       0
 LI bnd       x34       0
 LI bnd       x35       0
 LI bnd       x36       0
 LI bnd       x37       0
 LI bnd       x38       0
 LI bnd       x39       0
 LI bnd       x40       0
 LI bnd       x41       0
 LI bnd       x42       0
 LI bnd       x43       0
 LI bnd       x44       0
 LI bnd       x45       0
 LI bnd       x46       0
 LI bnd       x47       0
 LI bnd       x48       0
 LI bnd       x49       0
 LI bnd       x50       0
 LI bnd       x51       0
 LI bnd       x52       0
 LI bnd       x53       0
 LI bnd       x54       0
 LI bnd       x55       0
 LI bnd       x56       0
 LI bnd       x57       0
 LI bnd       x58       0
 LI bnd       x59       0
 LI bnd       x60       0
 LI bnd       x61       0
 LI bnd       x62       0
 LI bnd       x63       0
 LI bnd       x64       0
 LI bnd       x65       0
 LI bnd       x66       0
 LI bnd       x67       0
 LI bnd       x68       0
 LI bnd       x69       0
 LI bnd       x70       0
ENDATA
